0000000000000000
0000000000000000
0000000000000000
0000001110000000
0000111111000000
0001110011100000
0011100011110000
0000000001110000
0000000001110000
0000000000111000
0000000001111000
0000111111111000
0001110011111000
0011100000111000
0011000000011000
0000000000000000